proyfinal/src/viki/013/andrea/andrea-localstore/experimentInOfficeAgust.take6/worker_3/7e900c24-56b4-4333-b70d-d13b2582a5f2.als.cnf.out
Reading from standard input... Use '--help' for help.
============================[ Problem Statistics ]=============================
|                                                                             |
|  Number of variables:         87638                                         |
|  Number of clauses:          161767                                         |
|  Parse time:                   0.03 s                                       |
|                                                                             |
============================[ Search Statistics ]==============================
| Conflicts |          ORIGINAL         |          LEARNT          | Progress |
|           |    Vars  Clauses Literals |    Limit  Clauses Lit/Cl |          |
===============================================================================
|       100 |   62507   105739   264313 |    38770       98      9 | 28.676 % |
|       250 |   62462   105607   263965 |    42648      234     15 | 28.727 % |
|       475 |   62451   105463   263584 |    46912      445     65 | 28.740 % |
|       812 |   62451   105463   263584 |    51604      782     65 | 28.740 % |
|      1318 |   62451   105463   263584 |    56764     1288     58 | 28.740 % |
|      2077 |   62451   105463   263584 |    62441     2047     58 | 28.740 % |
===============================================================================
restarts              : 15
conflicts             : 3043           (8880 /sec)
decisions             : 12576          (0.00 % random) (36697 /sec)
propagations          : 4270524        (12461552 /sec)
conflict literals     : 140873         (48.86 % deleted)
Memory used           : 21.93 MB
CPU time              : 0.342696 s

UNSATISFIABLE
